Version identifier: 20.1.0.0 | 2020-11-10 | 9bedb6d68
Tried aggregator 2 times.
MIP Presolve eliminated 1324 rows and 685 columns.
MIP Presolve modified 3214 coefficients.
Aggregator did 123 substitutions.
Reduced MIP has 1762 rows, 1407 columns, and 5748 nonzeros.
Reduced MIP has 274 binaries, 1133 generals, 0 SOSs, and 0 indicators.
Presolve time = 0.02 sec. (7.28 ticks)
Found incumbent of value 2721.000000 after 0.03 sec. (14.44 ticks)
Probing fixed 40 vars, tightened 555 bounds.
Probing time = 0.00 sec. (1.23 ticks)
Tried aggregator 2 times.
MIP Presolve eliminated 772 rows and 148 columns.
MIP Presolve modified 233 coefficients.
Aggregator did 72 substitutions.
Reduced MIP has 918 rows, 1187 columns, and 2976 nonzeros.
Reduced MIP has 360 binaries, 827 generals, 0 SOSs, and 0 indicators.
Presolve time = 0.01 sec. (4.21 ticks)
Probing time = 0.00 sec. (0.24 ticks)
Tried aggregator 1 time.
Detecting symmetries...
MIP Presolve modified 361 coefficients.
Reduced MIP has 918 rows, 1187 columns, and 2976 nonzeros.
Reduced MIP has 360 binaries, 827 generals, 0 SOSs, and 0 indicators.
Presolve time = 0.00 sec. (2.26 ticks)
Probing time = 0.00 sec. (0.22 ticks)
Clique table members: 5.
MIP emphasis: balance optimality and feasibility.
MIP search method: dynamic search.
Parallel mode: deterministic, using up to 24 threads.
Root relaxation solution time = 0.01 sec. (2.72 ticks)

        Nodes                                         Cuts/
   Node  Left     Objective  IInf  Best Integer    Best Bound    ItCnt     Gap

*     0+    0                         2721.0000        0.0000           100.00%
      0     0        0.0000    60     2721.0000        0.0000      291  100.00%
*     0+    0                           25.0000        0.0000           100.00%
      0     0        0.0909   186       25.0000     Cuts: 185      570   99.64%
      0     0        0.5017   317       25.0000     Cuts: 159      892   97.99%
      0     0        0.5523   235       25.0000      Cuts: 58      981   97.79%
      0     0        0.8063   302       25.0000     Cuts: 116     1096   96.77%
      0     0        0.8904   407       25.0000      Cuts: 60     1303   96.44%
*     0+    0                           14.0000        0.8904            93.64%
      0     0        cutoff             14.0000       14.0000     1455    0.00%
Elapsed time = 2.73 sec. (104.68 ticks, tree = 0.01 MB, solutions = 3)

Implied bound cuts applied:  24
Flow cuts applied:  38
Mixed integer rounding cuts applied:  29
Zero-half cuts applied:  161
Lift and project cuts applied:  2
Gomory fractional cuts applied:  8

Root node processing (before b&c):
  Real time             =    2.73 sec. (104.79 ticks)
Parallel b&c, 24 threads:
  Real time             =    0.00 sec. (0.00 ticks)
  Sync time (average)   =    0.00 sec.
  Wait time (average)   =    0.00 sec.
                          ------------
Total (root+branch&cut) =    2.73 sec. (104.79 ticks)

Solution status = Optimal
Solution LB = 14
Solution UB = 14
Runtime = 2.73886 seconds
	Command being timed: "/home/min/git_repos/CS598MEBProject/CNT-ILP/build/cnt -s 2 ./output/k8_n20/simC_c1_k8_n20_u1_s3_del04.input-right.cnp"
	User time (seconds): 40.76
	System time (seconds): 0.09
	Percent of CPU this job got: 1468%
	Elapsed (wall clock) time (h:mm:ss or m:ss): 0:02.78
	Average shared text size (kbytes): 0
	Average unshared data size (kbytes): 0
	Average stack size (kbytes): 0
	Average total size (kbytes): 0
	Maximum resident set size (kbytes): 78420
	Average resident set size (kbytes): 0
	Major (requiring I/O) page faults: 0
	Minor (reclaiming a frame) page faults: 24068
	Voluntary context switches: 5177
	Involuntary context switches: 5318
	Swaps: 0
	File system inputs: 0
	File system outputs: 16
	Socket messages sent: 0
	Socket messages received: 0
	Signals delivered: 0
	Page size (bytes): 4096
	Exit status: 0
